NAME : prob35a.7746.tour
COMMENT : Cost = 0_7746
COMMENT : Found by LKH [Keld Helsgaun] Sun Sep 17 01:06:41 2017
TYPE : TOUR
DIMENSION : 71
TOUR_SECTION
1
57
62
68
69
67
43
54
70
49
55
64
14
47
8
20
48
65
45
27
58
38
63
71
37
41
56
60
32
10
28
52
61
36
66
25
39
35
13
44
50
42
19
22
59
9
53
33
2
34
51
18
15
31
24
30
12
16
40
46
29
11
6
21
5
7
26
3
17
4
23
-1
EOF
